solution status: optimal solution found
objective value:                     117638.669357131
d11(0,0)                                            1 	(obj:0)
d11(1,1)                                            1 	(obj:0)
d11(1,2)                                            1 	(obj:0)
d11(1,3)                                            1 	(obj:0)
d11(2,4)                                            1 	(obj:0)
d11(2,5)                                            1 	(obj:0)
d11(2,7)                                            1 	(obj:0)
d11(2,10)                                           1 	(obj:0)
d11(2,11)                                           1 	(obj:0)
d11(3,13)                                           1 	(obj:0)
d11(3,14)                                           1 	(obj:0)
d11(3,16)                                           1 	(obj:0)
d11(3,17)                                           1 	(obj:0)
d11(3,19)                                           1 	(obj:0)
d11(3,20)                                           1 	(obj:0)
d11(3,22)                                           1 	(obj:0)
d11(3,23)                                           1 	(obj:0)
d11(3,25)                                           1 	(obj:0)
d11(3,26)                                           1 	(obj:0)
d11(3,28)                                           1 	(obj:0)
d11(3,31)                                           1 	(obj:0)
d11(3,32)                                           1 	(obj:0)
d11(3,34)                                           1 	(obj:0)
d11(3,35)                                           1 	(obj:0)
d11(3,37)                                           1 	(obj:0)
d11(3,38)                                           1 	(obj:0)
d12(2,6)                                            1 	(obj:0)
d12(2,9)                                            1 	(obj:0)
d12(2,12)                                           1 	(obj:0)
d12(3,15)                                           1 	(obj:0)
d12(3,18)                                           1 	(obj:0)
d12(3,21)                                           1 	(obj:0)
d12(3,24)                                           1 	(obj:0)
d12(3,27)                                           1 	(obj:0)
d12(3,30)                                           1 	(obj:0)
d12(3,33)                                           1 	(obj:0)
d12(3,36)                                           1 	(obj:0)
d12(3,39)                                           1 	(obj:0)
d21(2,4)                                            1 	(obj:0)
d21(3,13)                                           1 	(obj:0)
d21(3,14)                                           1 	(obj:0)
d21(3,15)                                           1 	(obj:0)
d21(3,16)                                           1 	(obj:0)
d21(3,17)                                           1 	(obj:0)
d21(3,19)                                           1 	(obj:0)
d21(3,22)                                           1 	(obj:0)
d21(3,23)                                           1 	(obj:0)
d21(3,25)                                           1 	(obj:0)
d21(3,31)                                           1 	(obj:0)
y2(3,24)                             960.592982999942 	(obj:0)
y2(3,27)                             960.592982999942 	(obj:0)
y2(3,30)                             960.592982999942 	(obj:0)
y2(3,33)                             960.592983000051 	(obj:0)
y2(3,36)                             960.592982999936 	(obj:0)
y2(3,39)                             960.592982999942 	(obj:0)
STE(1,1)                             3024.00000000003 	(obj:0)
STE(0,0)                                         6300 	(obj:0)
STE(1,2)                             4020.76600333332 	(obj:0)
STE(1,3)                              5238.2182066667 	(obj:0)
STE(2,4)                             1523.23399666668 	(obj:0)
STE(2,5)                             2519.99999999985 	(obj:0)
STE(2,6)                             3432.56333385002 	(obj:0)
STE(2,7)                             2519.99999999997 	(obj:0)
STE(2,8)                             3516.76600333332 	(obj:0)
STE(2,9)                             4429.32933718331 	(obj:0)
STE(2,10)                            3737.45220333335 	(obj:0)
STE(2,11)                             4734.2182066667 	(obj:0)
STE(2,12)                            5646.78154051669 	(obj:0)
STE(3,13)                            22.4679933334507 	(obj:0)
STE(3,14)                            1019.23399666674 	(obj:0)
STE(3,15)                            1931.79733051667 	(obj:0)
STE(3,16)                            1019.23399666656 	(obj:0)
STE(3,17)                            2015.99999999985 	(obj:0)
STE(3,18)                            2928.56333384979 	(obj:0)
STE(3,19)                            1931.79733051673 	(obj:0)
STE(3,20)                            2928.56333385002 	(obj:0)
STE(3,21)                            3841.12666770001 	(obj:0)
STE(3,22)                            1019.23399666666 	(obj:0)
STE(3,23)                            2015.99999999997 	(obj:0)
STE(3,24)                            2928.56333384992 	(obj:0)
STE(3,25)                            2016.00000000003 	(obj:0)
STE(3,26)                            3012.76600333332 	(obj:0)
STE(3,27)                            3925.32933718327 	(obj:0)
STE(3,28)                            2928.56333385002 	(obj:0)
STE(3,29)                            3925.32933718331 	(obj:0)
STE(3,30)                            4837.89267103326 	(obj:0)
STE(3,31)                            2236.68620000006 	(obj:0)
STE(3,32)                            3233.45220333335 	(obj:0)
STE(3,33)                             4146.0155371834 	(obj:0)
STE(3,34)                            3233.45220333341 	(obj:0)
STE(3,35)                             4230.2182066667 	(obj:0)
STE(3,36)                            5142.78154051664 	(obj:0)
STE(3,37)                             4146.0155371834 	(obj:0)
STE(3,38)                            5142.78154051669 	(obj:0)
STE(3,39)                            6055.34487436663 	(obj:0)
y1(3,25)                             897.089402999962 	(obj:0)
y1(3,28)                             897.089402999962 	(obj:0)
y1(3,31)                             897.089402999962 	(obj:0)
y1(3,34)                             897.089402999962 	(obj:0)
y1(3,37)                             897.089402999962 	(obj:0)
BG(3)                                3377.84999999905 	(obj:10)
AVE(1)                               3199.95851117552 	(obj:0)
AVE(2)                               3265.15049132519 	(obj:0)
WB(3)                                3291.35535332476 	(obj:0)
AVE(3)                               3291.35535332476 	(obj:0)
WG(1)                                3199.95851117552 	(obj:10)
WG(2)                                3265.15049132519 	(obj:10)
BG(1)                                1808.20842453872 	(obj:10)
BG(2)                                 112.69950867481 	(obj:10)
y1(1,1)                              2494.79999999997 	(obj:0)
y1(1,2)                              1597.71059700001 	(obj:0)
y1(1,3)                               502.00361399997 	(obj:0)
y1(2,4)                              897.089403000015 	(obj:0)
y1(2,7)                              897.089403000015 	(obj:0)
y1(2,10)                             897.089403000015 	(obj:0)
y1(3,13)                             897.089402999908 	(obj:0)
y1(3,16)                             897.089402999962 	(obj:0)
y1(3,19)                             897.089402999962 	(obj:0)
y1(3,22)                             897.089402999977 	(obj:0)
y2(2,6)                              960.592982999986 	(obj:0)
y2(2,9)                              960.592982999986 	(obj:0)
y2(2,12)                             960.592982999986 	(obj:0)
y2(3,15)                             960.592982999986 	(obj:0)
y2(3,18)                             960.592982999942 	(obj:0)
y2(3,21)                             960.592982999986 	(obj:0)
